(set-info :Origin "This instance was generated by: BanditFuzz-- an RL fuzzer for SMT solvers" )
(set-info :Author "Joe Scott, Fed Mora, Vijay Ganesh" )
(set-info :Contact "Joe Scott, joseph.scott@uwaterloo.ca")
(set-logic QF_BV)
(declare-const bool_0 Bool)
(declare-const bool_1 Bool)
(declare-const bool_2 Bool)
(declare-const bool_3 Bool)
(declare-const bool_4 Bool)
(declare-const bv_0 (_ BitVec 32))
(declare-const bv_1 (_ BitVec 32))
(declare-const bv_2 (_ BitVec 32))
(declare-const bv_3 (_ BitVec 32))
(declare-const bv_4 (_ BitVec 32))
(assert (bvuge (bvurem (bvxor bv_4 #x26b89e53 ) (bvurem #x416b9346  bv_0)) (bvshl (bvadd bv_4 bv_0) (bvnand #x85199bb7  bv_1))))
(assert (or (and (bvslt bv_3 bv_0) (bvsgt #x959e5dab  bv_2)) (=> (bvule bv_4 bv_0) (bvult bv_4 #x36a03139 ))))
(assert (bvslt (bvadd (bvshl #x9ab8d67a  bv_4) (bvsrem #x27d5d15f  #x407dd787 )) (bvlshr (bvashr #x22607723  bv_3) (bvnand bv_4 bv_1))))
(assert (=> (bvuge (bvadd #x63475124  bv_0) (bvxnor #x6b37dcd4  bv_1)) (bvsle (bvadd bv_2 bv_0) (bvurem #xc8a05f65  #x293e8c4d ))))
(assert (bvugt (bvsub (bvadd #xf72cda92  bv_2) (bvurem #xf48e91d6  bv_1)) (bvurem (bvxnor #x9386abcf  bv_1) (bvshl #xd38f4310  bv_0))))
(check-sat)
(exit)
